744
1 0 5 642 1 645 1 644 1 643 1 628 1
2 0 5 245 1 72 1 65 1 161 1 58 1
3 0 5 112 1 83 1 256 1 258 1 278 1
4 0 5 482 1 414 1 483 1 490 1 366 1
5 0 5 471 1 427 1 386 1 434 1 574 1
6 0 5 349 1 492 1 398 1 206 1 202 1
7 0 5 48 1 91 1 266 1 89 1 34 1
8 0 5 215 1 290 1 241 1 539 1 547 1
9 0 5 535 1 546 1 254 1 378 1 584 1
10 0 5 129 1 158 1 45 1 236 1 196 1
11 0 5 14 1 228 1 29 1 80 1 253 1
12 0 5 231 1 70 1 137 1 25 1 251 1
13 0 5 99 1 218 1 207 1 134 1 201 1
14 0 5 80 1 11 1 252 1 174 1 520 1
15 0 5 40 1 38 1 150 1 22 1 57 1
16 0 5 450 1 268 1 224 1 525 1 127 1
17 0 5 104 1 203 1 174 1 73 1 187 1
18 0 5 78 1 227 1 76 1 205 1 99 1
19 0 5 213 1 184 1 187 1 323 1 520 1
20 0 5 41 1 266 1 231 1 70 1 251 1
21 0 5 44 1 119 1 203 1 263 1 111 1
22 0 5 57 1 15 1 251 1 209 1 38 1
23 0 5 29 1 246 1 253 1 283 1 174 1
24 0 5 225 1 569 1 330 1 400 1 357 1
25 0 5 285 1 70 1 251 1 137 1 102 1
26 0 5 232 1 265 1 189 1 179 1 170 1
27 0 5 194 1 272 1 122 1 123 1 47 1
28 0 5 403 1 514 1 351 1 449 1 494 1
29 0 5 23 1 253 1 11 1 246 1 252 1
30 0 5 384 1 180 1 556 1 567 1 173 1
31 0 5 152 1 217 1 96 1 172 1 102 1
32 0 5 409 1 450 1 224 1 39 1 528 1
33 0 5 200 1 253 1 144 1 283 1 148 1
34 0 5 130 1 171 1 133 1 92 1 266 1
35 0 5 67 1 537 1 446 1 353 1 140 1
36 0 5 205 1 76 1 74 1 88 1 286 1
37 0 5 159 1 175 1 165 1 153 1 15 1
38 0 5 136 1 15 1 40 1 159 1 69 1
39 0 5 528 1 275 1 32 1 428 1 496 1
40 0 5 150 1 15 1 38 1 159 1 22 1
41 0 5 20 1 266 1 251 1 70 1 48 1
42 0 5 63 1 301 1 187 1 44 1 382 1
43 0 5 169 1 255 1 133 1 161 1 280 1
44 0 5 63 1 21 1 263 1 187 1 203 1
45 0 5 111 1 248 1 292 1 119 1 220 1
46 0 5 273 1 114 1 497 1 509 1 262 1
47 0 5 123 1 274 1 232 1 170 1 26 1
48 0 5 266 1 7 1 218 1 91 1 211 1
49 0 5 417 1 510 1 583 1 337 1 420 1
50 0 5 324 1 566 1 319 1 230 1 142 1
51 0 5 164 1 261 1 314 1 193 1 64 1
52 0 5 385 1 541 1 303 1 61 1 483 1
53 0 5 285 1 128 1 102 1 217 1 25 1
54 0 5 364 1 151 1 55 1 319 1 576 1
55 0 5 54 1 551 1 151 1 505 1 376 1
56 0 5 270 1 99 1 205 1 13 1 218 1
57 0 5 22 1 209 1 15 1 251 1 38 1
58 0 5 156 1 219 1 72 1 2 1 288 1
59 0 5 198 1 168 1 130 1 92 1 34 1
60 0 5 396 1 140 1 473 1 552 1 446 1
61 0 5 380 1 483 1 536 1 52 1 584 1
62 0 5 108 1 132 1 192 1 250 1 85 1
63 0 5 42 1 301 1 44 1 241 1 539 1
64 0 5 51 1 261 1 164 1 115 1 127 1
65 0 5 244 1 72 1 2 1 144 1 200 1
66 0 5 519 1 84 1 560 1 422 1 509 1
67 0 5 257 1 35 1 335 1 402 1 527 1
68 0 5 105 1 94 1 512 1 143 1 498 1
69 0 5 136 1 212 1 38 1 15 1 244 1
70 0 5 12 1 25 1 251 1 231 1 20 1
71 0 5 190 1 227 1 83 1 116 1 278 1
72 0 5 2 1 65 1 244 1 219 1 58 1
73 0 5 174 1 184 1 213 1 520 1 252 1
74 0 5 137 1 205 1 36 1 218 1 56 1
75 0 5 273 1 497 1 509 1 114 1 437 1
76 0 5 88 1 36 1 286 1 227 1 18 1
77 0 5 469 1 177 1 439 1 117 1 558 1
78 0 5 18 1 99 1 210 1 227 1 13 1
79 0 5 398 1 492 1 121 1 488 1 461 1
80 0 5 14 1 252 1 11 1 520 1 228 1
81 0 5 361 1 344 1 540 1 389 1 447 1
82 0 5 220 1 45 1 10 1 98 1 421 1
83 0 5 258 1 3 1 112 1 71 1 278 1
84 0 5 422 1 160 1 66 1 401 1 267 1
85 0 5 162 1 147 1 368 1 62 1 108 1
86 0 5 485 1 326 1 383 1 530 1 362 1
87 0 5 157 1 164 1 124 1 314 1 115 1
88 0 5 286 1 116 1 76 1 227 1 36 1
89 0 5 260 1 91 1 249 1 7 1 211 1
90 0 5 562 1 367 1 581 1 488 1 475 1
91 0 5 211 1 7 1 89 1 134 1 48 1
92 0 5 168 1 34 1 130 1 59 1 171 1
93 0 5 237 1 426 1 282 1 238 1 185 1
94 0 5 68 1 512 1 452 1 105 1 126 1
95 0 5 391 1 541 1 395 1 385 1 366 1
96 0 5 128 1 152 1 31 1 217 1 172 1
97 0 5 634 1 644 1 635 1 628 1 629 1
98 0 5 82 1 421 1 141 1 10 1 149 1
99 0 5 13 1 78 1 56 1 270 1 205 1
100 0 5 354 1 397 1 557 1 491 1 430 1
101 0 5 259 1 222 1 372 1 578 1 526 1
102 0 5 217 1 285 1 251 1 53 1 25 1
103 0 5 324 1 216 1 143 1 399 1 319 1
104 0 5 118 1 174 1 17 1 203 1 246 1
105 0 5 68 1 143 1 293 1 94 1 103 1
106 0 5 346 1 327 1 469 1 537 1 117 1
107 0 5 250 1 26 1 114 1 442 1 192 1
108 0 5 62 1 281 1 250 1 139 1 125 1
109 0 5 401 1 442 1 291 1 273 1 499 1
110 0 5 192 1 250 1 442 1 268 1 114 1
111 0 5 45 1 119 1 21 1 292 1 129 1
112 0 5 3 1 256 1 83 1 258 1 282 1
113 0 5 422 1 160 1 66 1 84 1 439 1
114 0 5 273 1 442 1 110 1 107 1 509 1
115 0 5 127 1 164 1 87 1 261 1 124 1
116 0 5 258 1 88 1 71 1 286 1 83 1
117 0 5 469 1 435 1 460 1 77 1 106 1
118 0 5 246 1 104 1 17 1 174 1 280 1
119 0 5 292 1 21 1 263 1 111 1 44 1
120 0 5 196 1 194 1 236 1 158 1 129 1
121 0 5 488 1 79 1 415 1 461 1 492 1
122 0 5 194 1 47 1 27 1 123 1 232 1
123 0 5 47 1 249 1 274 1 170 1 232 1
124 0 5 193 1 87 1 428 1 164 1 314 1
125 0 5 229 1 281 1 178 1 155 1 210 1
126 0 5 452 1 373 1 94 1 498 1 68 1
127 0 5 115 1 261 1 164 1 87 1 51 1
128 0 5 96 1 53 1 172 1 217 1 152 1
129 0 5 158 1 10 1 111 1 236 1 198 1
130 0 5 133 1 34 1 198 1 284 1 59 1
131 0 5 332 1 183 1 138 1 471 1 434 1
132 0 5 276 1 525 1 62 1 368 1 192 1
133 0 5 130 1 284 1 43 1 34 1 255 1
134 0 5 201 1 13 1 207 1 211 1 91 1
135 0 5 580 1 562 1 367 1 121 1 492 1
136 0 5 69 1 38 1 212 1 15 1 159 1
137 0 5 74 1 12 1 231 1 25 1 70 1
138 0 5 332 1 471 1 279 1 131 1 183 1
139 0 5 229 1 108 1 281 1 125 1 265 1
140 0 5 446 1 473 1 60 1 468 1 552 1
141 0 5 436 1 82 1 504 1 235 1 558 1
142 0 5 566 1 230 1 50 1 364 1 163 1
143 0 5 103 1 105 1 512 1 94 1 68 1
144 0 5 148 1 33 1 65 1 200 1 161 1
145 0 5 186 1 298 1 419 1 585 1 412 1
146 0 5 544 1 556 1 404 1 384 1 238 1
147 0 5 368 1 188 1 431 1 278 1 85 1
148 0 5 200 1 144 1 65 1 33 1 245 1
149 0 5 141 1 421 1 311 1 291 1 504 1
150 0 5 40 1 15 1 159 1 38 1 22 1
151 0 5 319 1 54 1 239 1 374 1 364 1
152 0 5 96 1 31 1 217 1 128 1 102 1
153 0 5 165 1 269 1 172 1 31 1 102 1
154 0 5 283 1 280 1 246 1 161 1 118 1
155 0 5 181 1 178 1 125 1 210 1 229 1
156 0 5 58 1 219 1 288 1 2 1 171 1
157 0 5 314 1 87 1 428 1 124 1 243 1
158 0 5 236 1 129 1 198 1 284 1 277 1
159 0 5 175 1 37 1 150 1 40 1 38 1
160 0 5 84 1 422 1 113 1 291 1 519 1
161 0 5 245 1 255 1 169 1 283 1 133 1
162 0 5 85 1 368 1 147 1 62 1 108 1
163 0 5 230 1 372 1 563 1 364 1 324 1
164 0 5 87 1 127 1 115 1 51 1 261 1
165 0 5 153 1 269 1 37 1 172 1 175 1
166 0 5 313 1 404 1 384 1 30 1 375 1
167 0 5 409 1 32 1 224 1 525 1 268 1
168 0 5 92 1 249 1 59 1 34 1 130 1
169 0 5 43 1 255 1 161 1 280 1 154 1
170 0 5 265 1 232 1 274 1 249 1 26 1
171 0 5 288 1 34 1 219 1 266 1 156 1
172 0 5 269 1 165 1 96 1 128 1 153 1
173 0 5 331 1 240 1 180 1 556 1 334 1
174 0 5 252 1 104 1 73 1 17 1 246 1
175 0 5 159 1 37 1 165 1 150 1 40 1
176 0 5 479 1 496 1 455 1 386 1 408 1
177 0 5 469 1 439 1 77 1 558 1 117 1
178 0 5 190 1 181 1 155 1 125 1 210 1
179 0 5 189 1 265 1 226 1 26 1 139 1
180 0 5 567 1 240 1 173 1 30 1 480 1
181 0 5 155 1 178 1 125 1 226 1 210 1
182 0 5 199 1 495 1 315 1 228 1 462 1
183 0 5 356 1 360 1 332 1 131 1 457 1
184 0 5 213 1 19 1 73 1 187 1 520 1
185 0 5 313 1 237 1 404 1 238 1 93 1
186 0 5 145 1 498 1 512 1 94 1 298 1
187 0 5 213 1 19 1 184 1 44 1 42 1
188 0 5 279 1 409 1 147 1 32 1 368 1
189 0 5 179 1 26 1 265 1 139 1 226 1
190 0 5 71 1 178 1 227 1 181 1 18 1
191 0 5 480 1 490 1 458 1 240 1 448 1
192 0 5 525 1 110 1 224 1 62 1 132 1
193 0 5 124 1 428 1 314 1 164 1 51 1
194 0 5 120 1 249 1 196 1 236 1 27 1
195 0 5 462 1 495 1 355 1 459 1 233 1
196 0 5 236 1 120 1 158 1 198 1 194 1
197 0 5 481 1 411 1 561 1 552 1 545 1
198 0 5 59 1 130 1 158 1 236 1 133 1
199 0 5 182 1 495 1 289 1 462 1 228 1
200 0 5 148 1 33 1 144 1 244 1 65 1
201 0 5 207 1 134 1 13 1 218 1 211 1
202 0 5 390 1 398 1 461 1 492 1 328 1
203 0 5 17 1 21 1 104 1 44 1 187 1
204 0 5 570 1 379 1 344 1 422 1 353 1
205 0 5 36 1 74 1 56 1 99 1 218 1
206 0 5 349 1 473 1 140 1 527 1 492 1
207 0 5 201 1 13 1 134 1 218 1 210 1
208 0 5 582 1 437 1 634 1 626 1 627 1
209 0 5 219 1 57 1 15 1 251 1 22 1
210 0 5 226 1 125 1 265 1 181 1 13 1
211 0 5 91 1 134 1 274 1 249 1 48 1
212 0 5 287 1 69 1 244 1 136 1 65 1
213 0 5 184 1 19 1 187 1 73 1 520 1
214 0 5 507 1 502 1 461 1 381 1 415 1
215 0 5 8 1 550 1 547 1 539 1 290 1
216 0 5 319 1 103 1 293 1 399 1 151 1
217 0 5 31 1 102 1 152 1 96 1 128 1
218 0 5 270 1 13 1 201 1 231 1 134 1
219 0 5 209 1 288 1 58 1 156 1 72 1
220 0 5 221 1 248 1 82 1 292 1 45 1
221 0 5 248 1 550 1 220 1 516 1 547 1
222 0 5 526 1 101 1 383 1 563 1 326 1
223 0 5 239 1 359 1 374 1 151 1 55 1
224 0 5 450 1 525 1 32 1 268 1 409 1
225 0 5 24 1 330 1 400 1 417 1 569 1
226 0 5 265 1 210 1 181 1 229 1 281 1
227 0 5 286 1 18 1 71 1 76 1 88 1
228 0 5 234 1 520 1 11 1 289 1 182 1
229 0 5 139 1 125 1 281 1 226 1 210 1
230 0 5 163 1 142 1 566 1 324 1 50 1
231 0 5 12 1 137 1 20 1 70 1 218 1
232 0 5 26 1 170 1 265 1 189 1 179 1
233 0 5 459 1 351 1 495 1 195 1 449 1
234 0 5 228 1 289 1 520 1 323 1 19 1
235 0 5 504 1 299 1 220 1 436 1 558 1
236 0 5 158 1 196 1 198 1 284 1 59 1
237 0 5 93 1 185 1 313 1 238 1 544 1
238 0 5 544 1 515 1 93 1 237 1 185 1
239 0 5 223 1 151 1 547 1 359 1 374 1
240 0 5 523 1 567 1 180 1 173 1 480 1
241 0 5 290 1 301 1 382 1 63 1 8 1
242 0 5 421 1 82 1 311 1 194 1 149 1
243 0 5 395 1 408 1 541 1 496 1 95 1
244 0 5 287 1 65 1 72 1 212 1 200 1
245 0 5 2 1 161 1 144 1 65 1 283 1
246 0 5 23 1 118 1 154 1 283 1 104 1
247 0 5 444 1 282 1 256 1 3 1 457 1
248 0 5 292 1 221 1 45 1 263 1 550 1
249 0 5 274 1 260 1 168 1 89 1 91 1
250 0 5 107 1 281 1 108 1 110 1 62 1
251 0 5 285 1 102 1 25 1 70 1 57 1
252 0 5 80 1 14 1 174 1 520 1 73 1
253 0 5 29 1 33 1 23 1 283 1 11 1
254 0 5 536 1 535 1 554 1 393 1 9 1
255 0 5 169 1 43 1 161 1 133 1 280 1
256 0 5 282 1 112 1 3 1 247 1 278 1
257 0 5 67 1 429 1 402 1 537 1 379 1
258 0 5 83 1 116 1 112 1 3 1 88 1
259 0 5 578 1 101 1 372 1 423 1 445 1
260 0 5 89 1 249 1 274 1 91 1 211 1
261 0 5 127 1 164 1 51 1 115 1 64 1
262 0 5 273 1 497 1 509 1 406 1 114 1
263 0 5 539 1 44 1 119 1 292 1 21 1
264 0 5 338 1 430 1 474 1 309 1 491 1
265 0 5 226 1 210 1 179 1 139 1 26 1
266 0 5 48 1 20 1 41 1 34 1 171 1
267 0 5 401 1 273 1 84 1 509 1 442 1
268 0 5 16 1 224 1 450 1 525 1 192 1
269 0 5 172 1 165 1 153 1 31 1 96 1
270 0 5 56 1 218 1 99 1 13 1 205 1
271 0 5 543 1 563 1 383 1 506 1 222 1
272 0 5 27 1 122 1 242 1 311 1 499 1
273 0 5 114 1 497 1 262 1 442 1 268 1
274 0 5 249 1 260 1 211 1 123 1 89 1
275 0 5 427 1 39 1 386 1 496 1 176 1
276 0 5 132 1 525 1 368 1 62 1 224 1
277 0 5 284 1 158 1 133 1 43 1 280 1
278 0 5 444 1 431 1 147 1 71 1 3 1
279 0 5 188 1 138 1 332 1 131 1 431 1
280 0 5 154 1 246 1 283 1 118 1 43 1
281 0 5 125 1 250 1 108 1 139 1 229 1
282 0 5 256 1 247 1 93 1 112 1 457 1
283 0 5 154 1 253 1 33 1 246 1 23 1
284 0 5 277 1 133 1 130 1 158 1 198 1
285 0 5 53 1 25 1 251 1 102 1 70 1
286 0 5 88 1 227 1 76 1 116 1 71 1
287 0 5 212 1 244 1 72 1 69 1 136 1
288 0 5 171 1 219 1 156 1 58 1 34 1
289 0 5 234 1 323 1 228 1 199 1 462 1
290 0 5 241 1 8 1 539 1 215 1 547 1
291 0 5 109 1 499 1 84 1 439 1 401 1
292 0 5 119 1 263 1 21 1 111 1 248 1
293 0 5 399 1 216 1 105 1 143 1 103 1
294 0 5 362 1 568 1 413 1 358 1 333 1
295 0 5 586 1 424 1 392 1 389 1 321 1
296 0 5 347 1 564 1 532 1 487 1 387 1
297 0 5 310 1 377 1 393 1 554 1 523 1
298 0 5 412 1 145 1 419 1 430 1 585 1
299 0 5 374 1 235 1 505 1 221 1 220 1
300 0 5 331 1 572 1 377 1 329 1 521 1
301 0 5 42 1 63 1 382 1 241 1 539 1
302 0 5 476 1 475 1 388 1 581 1 502 1
303 0 5 366 1 483 1 385 1 52 1 414 1
304 0 5 433 1 365 1 388 1 577 1 381 1
305 0 5 440 1 555 1 518 1 369 1 350 1
306 0 5 538 1 387 1 474 1 487 1 296 1
307 0 5 506 1 565 1 576 1 357 1 463 1
308 0 5 477 1 335 1 508 1 527 1 522 1
309 0 5 338 1 559 1 579 1 264 1 452 1
310 0 5 297 1 393 1 554 1 377 1 523 1
311 0 5 149 1 421 1 242 1 291 1 272 1
312 0 5 356 1 457 1 183 1 426 1 282 1
313 0 5 166 1 185 1 404 1 237 1 146 1
314 0 5 157 1 87 1 428 1 193 1 124 1
315 0 5 514 1 182 1 351 1 233 1 459 1
316 0 5 501 1 503 1 548 1 318 1 489 1
317 0 5 456 1 503 1 90 1 548 1 581 1
318 0 5 548 1 489 1 503 1 316 1 475 1
319 0 5 216 1 151 1 103 1 364 1 50 1
320 0 5 466 1 55 1 505 1 551 1 374 1
321 0 5 370 1 540 1 424 1 389 1 295 1
322 0 5 493 1 418 1 533 1 24 1 460 1
323 0 5 289 1 19 1 234 1 228 1 462 1
324 0 5 50 1 103 1 230 1 143 1 319 1
325 0 5 411 1 537 1 405 1 352 1 341 1
326 0 5 383 1 222 1 530 1 485 1 526 1
327 0 5 106 1 352 1 435 1 537 1 346 1
328 0 5 468 1 508 1 402 1 473 1 202 1
329 0 5 472 1 300 1 363 1 571 1 572 1
330 0 5 400 1 417 1 225 1 24 1 357 1
331 0 5 334 1 300 1 173 1 410 1 515 1
332 0 5 138 1 131 1 183 1 471 1 431 1
333 0 5 543 1 271 1 529 1 383 1 565 1
334 0 5 331 1 377 1 240 1 173 1 300 1
335 0 5 527 1 508 1 308 1 328 1 477 1
336 0 5 81 1 361 1 553 1 560 1 486 1
337 0 5 420 1 417 1 531 1 49 1 330 1
338 0 5 264 1 309 1 430 1 559 1 474 1
339 0 5 348 1 449 1 564 1 532 1 342 1
340 0 5 549 1 389 1 425 1 424 1 321 1
341 0 5 451 1 294 1 362 1 352 1 510 1
342 0 5 494 1 534 1 348 1 339 1 449 1
343 0 5 545 1 530 1 445 1 481 1 453 1
344 0 5 447 1 540 1 361 1 81 1 486 1
345 0 5 478 1 491 1 487 1 474 1 296 1
346 0 5 106 1 429 1 537 1 379 1 352 1
347 0 5 296 1 387 1 487 1 564 1 532 1
348 0 5 339 1 342 1 478 1 534 1 532 1
349 0 5 6 1 206 1 396 1 473 1 492 1
350 0 5 392 1 305 1 513 1 369 1 518 1
351 0 5 449 1 315 1 233 1 459 1 403 1
352 0 5 451 1 537 1 429 1 325 1 346 1
353 0 5 379 1 467 1 570 1 429 1 35 1
354 0 5 100 1 491 1 430 1 397 1 412 1
355 0 5 462 1 195 1 495 1 524 1 459 1
356 0 5 312 1 457 1 183 1 282 1 426 1
357 0 5 576 1 463 1 400 1 307 1 569 1
358 0 5 465 1 568 1 294 1 529 1 333 1
359 0 5 374 1 223 1 239 1 516 1 547 1
360 0 5 572 1 571 1 472 1 183 1 363 1
361 0 5 81 1 540 1 344 1 321 1 389 1
362 0 5 294 1 411 1 86 1 326 1 405 1
363 0 5 571 1 472 1 572 1 360 1 441 1
364 0 5 371 1 54 1 576 1 319 1 151 1
365 0 5 304 1 577 1 392 1 513 1 470 1
366 0 5 303 1 414 1 483 1 385 1 4 1
367 0 5 562 1 90 1 135 1 121 1 488 1
368 0 5 147 1 525 1 409 1 188 1 85 1
369 0 5 518 1 438 1 555 1 440 1 467 1
370 0 5 447 1 540 1 321 1 438 1 424 1
371 0 5 364 1 576 1 506 1 563 1 463 1
372 0 5 163 1 563 1 259 1 101 1 222 1
373 0 5 126 1 452 1 579 1 559 1 309 1
374 0 5 359 1 151 1 223 1 505 1 239 1
375 0 5 404 1 384 1 185 1 146 1 30 1
376 0 5 551 1 463 1 55 1 576 1 569 1
377 0 5 523 1 334 1 297 1 300 1 573 1
378 0 5 574 1 464 1 546 1 434 1 9 1
379 0 5 467 1 353 1 429 1 204 1 346 1
380 0 5 61 1 483 1 393 1 536 1 52 1
381 0 5 433 1 390 1 507 1 214 1 522 1
382 0 5 301 1 241 1 105 1 373 1 517 1
383 0 5 326 1 222 1 485 1 271 1 526 1
384 0 5 30 1 166 1 146 1 375 1 556 1
385 0 5 52 1 541 1 303 1 95 1 366 1
386 0 5 496 1 528 1 427 1 176 1 479 1
387 0 5 487 1 538 1 306 1 347 1 296 1
388 0 5 302 1 476 1 433 1 475 1 577 1
389 0 5 424 1 425 1 549 1 321 1 540 1
390 0 5 202 1 381 1 398 1 461 1 415 1
391 0 5 414 1 95 1 395 1 458 1 482 1
392 0 5 577 1 470 1 586 1 542 1 388 1
393 0 5 310 1 554 1 483 1 297 1 380 1
394 0 5 517 1 524 1 323 1 355 1 462 1
395 0 5 243 1 95 1 391 1 541 1 385 1
396 0 5 60 1 473 1 349 1 140 1 446 1
397 0 5 557 1 100 1 412 1 430 1 354 1
398 0 5 79 1 6 1 492 1 202 1 390 1
399 0 5 293 1 103 1 216 1 105 1 143 1
400 0 5 357 1 307 1 463 1 417 1 569 1
401 0 5 267 1 109 1 442 1 84 1 273 1
402 0 5 473 1 328 1 468 1 140 1 446 1
403 0 5 28 1 351 1 494 1 449 1 514 1
404 0 5 375 1 166 1 313 1 146 1 185 1
405 0 5 411 1 325 1 362 1 352 1 341 1
406 0 5 509 1 437 1 636 1 628 1 629 1
407 0 5 425 1 511 1 553 1 549 1 389 1
408 0 5 243 1 584 1 496 1 455 1 176 1
409 0 5 32 1 188 1 224 1 368 1 528 1
410 0 5 515 1 331 1 426 1 544 1 238 1
411 0 5 197 1 405 1 325 1 362 1 86 1
412 0 5 298 1 430 1 397 1 354 1 491 1
413 0 5 568 1 294 1 358 1 510 1 417 1
414 0 5 391 1 4 1 366 1 303 1 482 1
415 0 5 461 1 488 1 502 1 121 1 79 1
416 0 5 534 1 557 1 397 1 348 1 342 1
417 0 5 400 1 413 1 568 1 531 1 49 1
418 0 5 569 1 357 1 24 1 376 1 551 1
419 0 5 585 1 298 1 145 1 498 1 412 1
420 0 5 337 1 417 1 531 1 330 1 49 1
421 0 5 242 1 82 1 98 1 235 1 311 1
422 0 5 84 1 160 1 486 1 344 1 113 1
423 0 5 445 1 578 1 259 1 453 1 545 1
424 0 5 389 1 586 1 295 1 321 1 425 1
425 0 5 389 1 424 1 542 1 407 1 575 1
426 0 5 93 1 457 1 410 1 572 1 360 1
427 0 5 275 1 479 1 386 1 528 1 5 1
428 0 5 193 1 157 1 124 1 496 1 314 1
429 0 5 257 1 537 1 352 1 379 1 346 1
430 0 5 491 1 264 1 412 1 354 1 397 1
431 0 5 278 1 147 1 444 1 247 1 183 1
432 0 5 533 1 505 1 551 1 466 1 320 1
433 0 5 381 1 388 1 304 1 502 1 476 1
434 0 5 471 1 464 1 5 1 378 1 131 1
435 0 5 117 1 327 1 460 1 337 1 420 1
436 0 5 558 1 504 1 235 1 77 1 177 1
437 0 5 582 1 560 1 509 1 208 1 553 1
438 0 5 369 1 370 1 321 1 467 1 555 1
439 0 5 499 1 177 1 469 1 77 1 291 1
440 0 5 305 1 369 1 350 1 555 1 518 1
441 0 5 472 1 571 1 360 1 363 1 183 1
442 0 5 110 1 273 1 114 1 109 1 401 1
443 0 5 454 1 388 1 475 1 433 1 318 1
444 0 5 247 1 278 1 431 1 256 1 3 1
445 0 5 423 1 545 1 552 1 453 1 343 1
446 0 5 140 1 552 1 468 1 60 1 473 1
447 0 5 370 1 540 1 467 1 344 1 321 1
448 0 5 458 1 490 1 482 1 480 1 191 1
449 0 5 351 1 339 1 403 1 348 1 342 1
450 0 5 224 1 16 1 32 1 525 1 268 1
451 0 5 341 1 352 1 510 1 325 1 583 1
452 0 5 126 1 309 1 94 1 373 1 498 1
453 0 5 545 1 481 1 445 1 561 1 343 1
454 0 5 575 1 542 1 489 1 443 1 388 1
455 0 5 479 1 584 1 408 1 176 1 496 1
456 0 5 317 1 501 1 503 1 548 1 316 1
457 0 5 426 1 312 1 356 1 282 1 183 1
458 0 5 448 1 482 1 490 1 480 1 391 1
459 0 5 233 1 351 1 495 1 195 1 355 1
460 0 5 493 1 117 1 24 1 322 1 418 1
461 0 5 415 1 121 1 492 1 202 1 390 1
462 0 5 195 1 355 1 495 1 199 1 182 1
463 0 5 357 1 576 1 307 1 376 1 506 1
464 0 5 574 1 378 1 546 1 434 1 472 1
465 0 5 358 1 529 1 565 1 510 1 568 1
466 0 5 320 1 505 1 374 1 55 1 551 1
467 0 5 379 1 369 1 447 1 353 1 438 1
468 0 5 328 1 552 1 446 1 140 1 402 1
469 0 5 177 1 117 1 106 1 439 1 77 1
470 0 5 392 1 577 1 513 1 542 1 388 1
471 0 5 5 1 434 1 138 1 131 1 455 1
472 0 5 571 1 363 1 441 1 329 1 360 1
473 0 5 206 1 396 1 140 1 402 1 60 1
474 0 5 306 1 264 1 487 1 387 1 345 1
475 0 5 302 1 548 1 581 1 388 1 503 1
476 0 5 502 1 302 1 488 1 581 1 388 1
477 0 5 522 1 308 1 508 1 381 1 335 1
478 0 5 345 1 348 1 532 1 296 1 564 1
479 0 5 176 1 455 1 427 1 386 1 584 1
480 0 5 191 1 490 1 240 1 458 1 567 1
481 0 5 545 1 197 1 453 1 552 1 561 1
482 0 5 4 1 458 1 490 1 448 1 391 1
483 0 5 380 1 4 1 303 1 393 1 61 1
484 0 5 500 1 553 1 511 1 437 1 582 1
485 0 5 86 1 383 1 326 1 530 1 526 1
486 0 5 344 1 361 1 540 1 422 1 81 1
487 0 5 387 1 347 1 296 1 474 1 345 1
488 0 5 502 1 121 1 415 1 476 1 79 1
489 0 5 318 1 454 1 511 1 575 1 316 1
490 0 5 480 1 191 1 458 1 482 1 448 1
491 0 5 354 1 430 1 100 1 345 1 478 1
492 0 5 6 1 79 1 398 1 461 1 202 1
493 0 5 460 1 322 1 418 1 24 1 225 1
494 0 5 342 1 534 1 403 1 348 1 449 1
495 0 5 199 1 182 1 195 1 462 1 233 1
496 0 5 386 1 528 1 176 1 428 1 408 1
497 0 5 509 1 273 1 262 1 75 1 114 1
498 0 5 186 1 512 1 585 1 419 1 145 1
499 0 5 439 1 291 1 77 1 469 1 177 1
500 0 5 484 1 553 1 582 1 389 1 425 1
501 0 5 316 1 456 1 634 1 627 1 628 1
502 0 5 488 1 476 1 415 1 214 1 507 1
503 0 5 548 1 316 1 317 1 318 1 475 1
504 0 5 235 1 436 1 558 1 77 1 141 1
505 0 5 374 1 55 1 466 1 299 1 359 1
506 0 5 565 1 576 1 307 1 371 1 271 1
507 0 5 214 1 461 1 502 1 381 1 415 1
508 0 5 328 1 335 1 522 1 477 1 308 1
509 0 5 406 1 497 1 273 1 437 1 114 1
510 0 5 413 1 341 1 583 1 568 1 465 1
511 0 5 582 1 489 1 553 1 484 1 425 1
512 0 5 94 1 186 1 498 1 68 1 143 1
513 0 5 470 1 577 1 542 1 392 1 365 1
514 0 5 315 1 28 1 351 1 182 1 403 1
515 0 5 410 1 331 1 544 1 238 1 426 1
516 0 5 547 1 359 1 550 1 374 1 239 1
517 0 5 394 1 524 1 323 1 373 1 382 1
518 0 5 369 1 392 1 305 1 586 1 350 1
519 0 5 66 1 361 1 560 1 422 1 553 1
520 0 5 228 1 252 1 234 1 73 1 19 1
521 0 5 573 1 377 1 300 1 329 1 554 1
522 0 5 477 1 508 1 507 1 381 1 308 1
523 0 5 240 1 377 1 393 1 483 1 297 1
524 0 5 394 1 517 1 355 1 579 1 462 1
525 0 5 224 1 192 1 450 1 368 1 132 1
526 0 5 222 1 101 1 326 1 383 1 530 1
527 0 5 335 1 206 1 308 1 508 1 328 1
528 0 5 39 1 386 1 496 1 427 1 32 1
529 0 5 333 1 465 1 543 1 565 1 358 1
530 0 5 343 1 326 1 222 1 526 1 545 1
531 0 5 417 1 337 1 330 1 420 1 225 1
532 0 5 564 1 296 1 339 1 478 1 348 1
533 0 5 432 1 551 1 322 1 320 1 505 1
534 0 5 416 1 342 1 494 1 348 1 557 1
535 0 5 9 1 254 1 546 1 584 1 536 1
536 0 5 254 1 61 1 380 1 393 1 535 1
537 0 5 429 1 325 1 257 1 346 1 35 1
538 0 5 387 1 306 1 487 1 474 1 347 1
539 0 5 263 1 290 1 301 1 550 1 241 1
540 0 5 370 1 321 1 389 1 447 1 424 1
541 0 5 95 1 385 1 395 1 52 1 408 1
542 0 5 575 1 454 1 577 1 425 1 470 1
543 0 5 271 1 333 1 565 1 506 1 529 1
544 0 5 238 1 146 1 515 1 556 1 331 1
545 0 5 453 1 481 1 343 1 445 1 561 1
546 0 5 378 1 9 1 464 1 554 1 535 1
547 0 5 239 1 215 1 550 1 516 1 241 1
548 0 5 503 1 316 1 475 1 318 1 317 1
549 0 5 389 1 340 1 425 1 424 1 321 1
550 0 5 215 1 539 1 547 1 516 1 248 1
551 0 5 376 1 55 1 374 1 320 1 505 1
552 0 5 446 1 468 1 140 1 60 1 445 1
553 0 5 484 1 582 1 511 1 560 1 437 1
554 0 5 393 1 310 1 297 1 254 1 377 1
555 0 5 305 1 369 1 438 1 518 1 467 1
556 0 5 146 1 544 1 30 1 173 1 384 1
557 0 5 397 1 416 1 100 1 354 1 534 1
558 0 5 436 1 504 1 235 1 177 1 77 1
559 0 5 579 1 309 1 338 1 373 1 452 1
560 0 5 553 1 437 1 582 1 486 1 66 1
561 0 5 453 1 481 1 545 1 197 1 343 1
562 0 5 367 1 90 1 135 1 580 1 492 1
563 0 5 372 1 163 1 271 1 222 1 383 1
564 0 5 532 1 296 1 339 1 347 1 348 1
565 0 5 506 1 307 1 576 1 543 1 271 1
566 0 5 142 1 50 1 230 1 364 1 324 1
567 0 5 180 1 240 1 490 1 480 1 30 1
568 0 5 413 1 294 1 358 1 529 1 465 1
569 0 5 357 1 400 1 418 1 463 1 24 1
570 0 5 204 1 379 1 353 1 344 1 467 1
571 0 5 363 1 572 1 360 1 472 1 441 1
572 0 5 300 1 360 1 571 1 426 1 363 1
573 0 5 521 1 377 1 300 1 329 1 297 1
574 0 5 378 1 464 1 472 1 434 1 441 1
575 0 5 454 1 542 1 425 1 489 1 388 1
576 0 5 371 1 364 1 357 1 506 1 463 1
577 0 5 392 1 470 1 388 1 542 1 513 1
578 0 5 259 1 423 1 101 1 526 1 445 1
579 0 5 559 1 309 1 373 1 338 1 462 1
580 0 5 135 1 562 1 492 1 367 1 121 1
581 0 5 90 1 475 1 476 1 302 1 488 1
582 0 5 437 1 553 1 511 1 560 1 500 1
583 0 5 510 1 451 1 417 1 49 1 341 1
584 0 5 408 1 455 1 479 1 61 1 535 1
585 0 5 419 1 498 1 298 1 145 1 309 1
586 0 5 295 1 424 1 392 1 389 1 542 1
587 0 5 642 1 645 1 644 1 643 1 628 1
588 0 5 642 1 645 1 644 1 643 1 628 1
589 0 5 642 1 645 1 644 1 643 1 628 1
590 0 5 642 1 645 1 644 1 643 1 628 1
591 0 5 642 1 645 1 644 1 643 1 628 1
592 0 5 642 1 645 1 644 1 643 1 628 1
593 0 5 642 1 645 1 644 1 643 1 628 1
594 0 5 642 1 645 1 644 1 643 1 628 1
595 0 5 642 1 645 1 644 1 643 1 628 1
596 0 5 642 1 645 1 644 1 643 1 628 1
597 0 5 642 1 645 1 644 1 643 1 628 1
598 0 5 642 1 645 1 644 1 643 1 628 1
599 0 5 642 1 645 1 644 1 643 1 628 1
600 0 5 642 1 645 1 644 1 643 1 628 1
601 0 5 642 1 645 1 644 1 643 1 628 1
602 0 5 642 1 645 1 644 1 643 1 628 1
603 0 5 642 1 645 1 644 1 643 1 628 1
604 0 5 642 1 645 1 644 1 643 1 628 1
605 0 5 642 1 645 1 644 1 643 1 628 1
606 0 5 642 1 645 1 644 1 643 1 628 1
607 0 5 642 1 645 1 644 1 643 1 628 1
608 0 5 642 1 645 1 644 1 643 1 628 1
609 0 5 642 1 645 1 644 1 643 1 628 1
610 0 5 642 1 645 1 644 1 643 1 628 1
611 0 5 642 1 645 1 644 1 643 1 628 1
612 0 5 642 1 645 1 644 1 643 1 628 1
613 0 5 642 1 645 1 644 1 643 1 628 1
614 0 5 642 1 645 1 644 1 643 1 628 1
615 0 5 642 1 645 1 644 1 643 1 628 1
616 0 5 642 1 645 1 644 1 643 1 628 1
617 0 5 642 1 645 1 644 1 643 1 628 1
618 0 5 642 1 645 1 644 1 643 1 628 1
619 0 5 642 1 645 1 644 1 643 1 628 1
620 0 5 642 1 645 1 644 1 643 1 628 1
621 0 5 642 1 645 1 644 1 643 1 628 1
622 0 5 642 1 645 1 644 1 643 1 628 1
623 0 5 642 1 645 1 644 1 643 1 628 1
624 0 5 642 1 645 1 644 1 643 1 628 1
625 0 5 642 1 645 1 644 1 643 1 628 1
626 0 5 642 1 645 1 644 1 643 1 628 1
627 0 5 642 1 645 1 644 1 643 1 628 1
628 0 5 642 1 645 1 644 1 643 1 628 1
629 0 5 642 1 645 1 644 1 643 1 628 1
630 0 5 642 1 645 1 644 1 643 1 628 1
631 0 5 642 1 645 1 644 1 643 1 628 1
632 0 5 642 1 645 1 644 1 643 1 628 1
633 0 5 642 1 645 1 644 1 643 1 628 1
634 0 5 642 1 645 1 644 1 643 1 628 1
635 0 5 642 1 645 1 644 1 643 1 628 1
636 0 5 642 1 645 1 644 1 643 1 628 1
637 0 5 642 1 645 1 644 1 643 1 628 1
638 0 5 642 1 645 1 644 1 643 1 628 1
639 0 5 642 1 645 1 644 1 643 1 628 1
640 0 5 642 1 645 1 644 1 643 1 628 1
641 0 5 642 1 645 1 644 1 643 1 628 1
642 0 5 642 1 645 1 644 1 643 1 628 1
643 0 5 642 1 645 1 644 1 643 1 628 1
644 0 5 642 1 645 1 644 1 643 1 628 1
645 0 5 642 1 645 1 644 1 643 1 628 1
646 0 5 642 1 645 1 644 1 643 1 628 1
647 0 5 642 1 645 1 644 1 643 1 628 1
648 0 5 642 1 645 1 644 1 643 1 628 1
649 0 5 642 1 645 1 644 1 643 1 628 1
650 0 5 642 1 645 1 644 1 643 1 628 1
651 0 5 642 1 645 1 644 1 643 1 628 1
652 0 5 642 1 645 1 644 1 643 1 628 1
653 0 5 642 1 645 1 644 1 643 1 628 1
654 0 5 642 1 645 1 644 1 643 1 628 1
655 0 5 642 1 645 1 644 1 643 1 628 1
656 0 5 642 1 645 1 644 1 643 1 628 1
657 0 5 642 1 645 1 644 1 643 1 628 1
658 0 5 642 1 645 1 644 1 643 1 628 1
659 0 5 642 1 645 1 644 1 643 1 628 1
660 0 5 642 1 645 1 644 1 643 1 628 1
661 0 5 642 1 645 1 644 1 643 1 628 1
662 0 5 642 1 645 1 644 1 643 1 628 1
663 0 5 642 1 645 1 644 1 643 1 628 1
664 0 5 642 1 645 1 644 1 643 1 628 1
665 0 5 642 1 645 1 644 1 643 1 628 1
666 0 5 642 1 645 1 644 1 643 1 628 1
667 0 5 642 1 645 1 644 1 643 1 628 1
668 0 5 642 1 645 1 644 1 643 1 628 1
669 0 5 642 1 645 1 644 1 643 1 628 1
670 0 5 642 1 645 1 644 1 643 1 628 1
671 0 5 642 1 645 1 644 1 643 1 628 1
672 0 5 642 1 645 1 644 1 643 1 628 1
673 0 5 642 1 645 1 644 1 643 1 628 1
674 0 5 642 1 645 1 644 1 643 1 628 1
675 0 5 642 1 645 1 644 1 643 1 628 1
676 0 5 642 1 645 1 644 1 643 1 628 1
677 0 5 642 1 645 1 644 1 643 1 628 1
678 0 5 642 1 645 1 644 1 643 1 628 1
679 0 5 642 1 645 1 644 1 643 1 628 1
680 0 5 642 1 645 1 644 1 643 1 628 1
681 0 5 642 1 645 1 644 1 643 1 628 1
682 0 5 642 1 645 1 644 1 643 1 628 1
683 0 5 642 1 645 1 644 1 643 1 628 1
684 0 5 642 1 645 1 644 1 643 1 628 1
685 0 5 642 1 645 1 644 1 643 1 628 1
686 0 5 642 1 645 1 644 1 643 1 628 1
687 0 5 642 1 645 1 644 1 643 1 628 1
688 0 5 642 1 645 1 644 1 643 1 628 1
689 0 5 642 1 645 1 644 1 643 1 628 1
690 0 5 642 1 645 1 644 1 643 1 628 1
691 0 5 642 1 645 1 644 1 643 1 628 1
692 0 5 642 1 645 1 644 1 643 1 628 1
693 0 5 642 1 645 1 644 1 643 1 628 1
694 0 5 642 1 645 1 644 1 643 1 628 1
695 0 5 642 1 645 1 644 1 643 1 628 1
696 0 5 642 1 645 1 644 1 643 1 628 1
697 0 5 642 1 645 1 644 1 643 1 628 1
698 0 5 642 1 645 1 644 1 643 1 628 1
699 0 5 642 1 645 1 644 1 643 1 628 1
700 0 5 642 1 645 1 644 1 643 1 628 1
701 0 5 642 1 645 1 644 1 643 1 628 1
702 0 5 642 1 645 1 644 1 643 1 628 1
703 0 5 642 1 645 1 644 1 643 1 628 1
704 0 5 642 1 645 1 644 1 643 1 628 1
705 0 5 642 1 645 1 644 1 643 1 628 1
706 0 5 642 1 645 1 644 1 643 1 628 1
707 0 5 642 1 645 1 644 1 643 1 628 1
708 0 5 642 1 645 1 644 1 643 1 628 1
709 0 5 642 1 645 1 644 1 643 1 628 1
710 0 5 642 1 645 1 644 1 643 1 628 1
711 0 5 642 1 645 1 644 1 643 1 628 1
712 0 5 642 1 645 1 644 1 643 1 628 1
713 0 5 642 1 645 1 644 1 643 1 628 1
714 0 5 642 1 645 1 644 1 643 1 628 1
715 0 5 642 1 645 1 644 1 643 1 628 1
716 0 5 642 1 645 1 644 1 643 1 628 1
717 0 5 642 1 645 1 644 1 643 1 628 1
718 0 5 642 1 645 1 644 1 643 1 628 1
719 0 5 642 1 645 1 644 1 643 1 628 1
720 0 5 642 1 645 1 644 1 643 1 628 1
721 0 5 642 1 645 1 644 1 643 1 628 1
722 0 5 642 1 645 1 644 1 643 1 628 1
723 0 5 642 1 645 1 644 1 643 1 628 1
724 0 5 642 1 645 1 644 1 643 1 628 1
725 0 5 642 1 645 1 644 1 643 1 628 1
726 0 5 642 1 645 1 644 1 643 1 628 1
727 0 5 642 1 645 1 644 1 643 1 628 1
728 0 5 642 1 645 1 644 1 643 1 628 1
729 0 5 642 1 645 1 644 1 643 1 628 1
730 0 5 642 1 645 1 644 1 643 1 628 1
731 0 5 642 1 645 1 644 1 643 1 628 1
732 0 5 642 1 645 1 644 1 643 1 628 1
733 0 5 642 1 645 1 644 1 643 1 628 1
734 0 5 642 1 645 1 644 1 643 1 628 1
735 0 5 642 1 645 1 644 1 643 1 628 1
736 0 5 642 1 645 1 644 1 643 1 628 1
737 0 5 642 1 645 1 644 1 643 1 628 1
738 0 5 642 1 645 1 644 1 643 1 628 1
739 0 5 642 1 645 1 644 1 643 1 628 1
740 0 5 642 1 645 1 644 1 643 1 628 1
741 0 5 642 1 645 1 644 1 643 1 628 1
742 0 5 642 1 645 1 644 1 643 1 628 1
743 0 5 642 1 645 1 644 1 643 1 628 1
744 0 5 642 1 645 1 644 1 643 1 628 1
-1
EOF
